c all_slices.cnf
p cnf 112 78
1 0 
-101 10 0
101 -10 0
-110 8 0
110 -8 0
-104 17 0
104 -17 0
-107 8 0
107 -8 0
-106 15 0
106 -15 0
-109 11 0
109 -11 0
-103 14 0
103 -14 0
-112 8 0
112 -8 0
-105 16 0
105 -16 0
-108 12 0
108 -12 0
-102 13 0
102 -13 0
-111 8 0
111 -8 0
-14  -15 0
 10  -15 0
 -11  -12 0
 -13  -14 0
 10  -16 0
 -13  -16 0
 -14  -17 0
 10  -17 0
 16  15  17  -10  14  13 0
 10  -14 0
 -10  1 0
 -13  -15 0
 -16  -17 0
 10  -13 0
 -15  -17 0
 -13  -17 0
 -8  1 0
 8  -11 0
 -14  -16 0
 10  -1 0
 -8  11  12 0
 -15  -16 0
 8  -12 0
-108  -110 0
 101  -104 0
 -102  -103 0
 100 0
 110  -112 0
 -107  100 0
 101 0
 -103  -105 0
 -111  -112 0
 -104  -105 0
 -109  -110 0
 -104  -106 0
 107  -109 0
 110  -111 0
 107  -110 0
 107  -108 0
 101  -103 0
 -106  -105 0
 101  -102 0
 -107  109  108  110 0
 -110  111  112 0
 101  -106 0
 -102  -105 0
 104  102  106  105  -101  103 0
 -109  -108 0
 101  -105 0
 -103  -104 0
 -102  -104 0
 -102  -106 0
 -103  -106 0
